c File: data_files/evolved_graphs/g5082.col
c
c Auto generated graph
c
p edge 100 54
e 1 61
e 1 62
e 2 45
e 3 55
e 4 53
e 5 58
e 5 59
e 6 83
e 6 84
e 7 50
e 7 72
e 7 99
e 8 99
e 9 14
e 10 40
e 10 100
e 11 23
e 11 44
e 12 63
e 13 39
e 14 28
e 15 34
e 15 87
e 16 25
e 16 86
e 17 29
e 17 74
e 18 39
e 18 50
e 19 21
e 20 27
e 20 60
e 22 41
e 22 52
e 23 41
e 23 76
e 24 26
e 24 41
e 25 29
e 26 28
e 30 54
e 31 67
e 32 45
e 33 37
e 38 40
e 49 51
e 57 58
e 70 78
e 73 98
e 74 96
e 77 81
e 87 89
e 88 94
e 90 92
